New structure                           
   1.00000000000000     
    11.0598781171558969    0.0000000000001118    0.0000000000000000
    -5.5299390586277548    9.5781354121856506    0.0000000000000000
     0.0000000000000000    0.0000000000000000   15.5597975429048798
  72
Direct
  0.0000000000000000  0.0000000000000000  0.0000000000000000
  0.0000000000000000  0.5000000000000000  0.0000000000000000
  0.1666666719999981  0.3333329860000021  0.0000000000000000
  0.3333333429999996  0.1666666719999981  0.0000000000000000
  0.5000000000000000  0.0000000000000000  0.0000000000000000
  0.1666666719999981  0.8333330150000009  0.0000000000000000
  0.3333333429999996  0.6666669849999991  0.0000000000000000
  0.5000000000000000  0.5000000000000000  0.0000000000000000
  0.6666666870000029  0.3333329860000021  0.0000000000000000
  0.8333333129999971  0.1666669990000003  0.0000000000000000
  0.6666666870000029  0.8333330150000009  0.0000000000000000
  0.8333333129999971  0.6666669849999991  0.0000000000000000
  0.0000000000000000  0.1666669990000003  0.1666666666666643
  0.1666666719999981  0.0000000000000000  0.1666666666666643
  0.0000000000000000  0.6666669849999991  0.1666666666666643
  0.1666666719999981  0.5000000000000000  0.1666666666666643
  0.3333333429999996  0.3333329860000021  0.1666666666666643
  0.5000000000000000  0.1666669990000003  0.1666666666666643
  0.6666666870000029  0.0000000000000000  0.1666666666666643
  0.3333329860000021  0.8333333129999971  0.1666666666666643
  0.5000000000000000  0.6666669849999991  0.1666666666666643
  0.6666666870000029  0.5000000000000000  0.1666666666666643
  0.8333333129999971  0.3333329860000021  0.1666666666666643
  0.8333333129999971  0.8333333129999971  0.1666666666666643
  0.0000000000000000  0.0000000000000000  0.3333333333333357
  0.0000000000000000  0.5000000000000000  0.3333333333333357
  0.1666666719999981  0.3333329860000021  0.3333333333333357
  0.3333333429999996  0.1666666719999981  0.3333333333333357
  0.5000000000000000  0.0000000000000000  0.3333333333333357
  0.1666666719999981  0.8333330150000009  0.3333333333333357
  0.3333333429999996  0.6666669849999991  0.3333333333333357
  0.5000000000000000  0.5000000000000000  0.3333333333333357
  0.6666666870000029  0.3333329860000021  0.3333333333333357
  0.8333333129999971  0.1666669990000003  0.3333333333333357
  0.6666666870000029  0.8333330150000009  0.3333333333333357
  0.8333333129999971  0.6666669849999991  0.3333333333333357
  0.0000000000000000  0.1666669990000003  0.5000000000000000
  0.1666666719999981  0.0000000000000000  0.5000000000000000
  0.0000000000000000  0.6666669849999991  0.5000000000000000
  0.1666666719999981  0.5000000000000000  0.5000000000000000
  0.3333333429999996  0.3333329860000021  0.5000000000000000
  0.5000000000000000  0.1666669990000003  0.5000000000000000
  0.6666666870000029  0.0000000000000000  0.5000000000000000
  0.3333329860000021  0.8333333129999971  0.5000000000000000
  0.5000000000000000  0.6666669849999991  0.5000000000000000
  0.6666666870000029  0.5000000000000000  0.5000000000000000
  0.8333333129999971  0.3333329860000021  0.5000000000000000
  0.8333333129999971  0.8333333129999971  0.5000000000000000
  0.0000000000000000  0.0000000000000000  0.6666666666666643
  0.0000000000000000  0.5000000000000000  0.6666666666666643
  0.1666666719999981  0.3333329860000021  0.6666666666666643
  0.3333333429999996  0.1666666719999981  0.6666666666666643
  0.5000000000000000  0.0000000000000000  0.6666666666666643
  0.1666666719999981  0.8333330150000009  0.6666666666666643
  0.3333333429999996  0.6666669849999991  0.6666666666666643
  0.5000000000000000  0.5000000000000000  0.6666666666666643
  0.6666666870000029  0.3333329860000021  0.6666666666666643
  0.8333333129999971  0.1666669990000003  0.6666666666666643
  0.6666666870000029  0.8333330150000009  0.6666666666666643
  0.8333333129999971  0.6666669849999991  0.6666666666666643
  0.0000000000000000  0.1666669990000003  0.8333333333333357
  0.1666666719999981  0.0000000000000000  0.8333333333333357
  0.0000000000000000  0.6666669849999991  0.8333333333333357
  0.1666666719999981  0.5000000000000000  0.8333333333333357
  0.3333333429999996  0.3333329860000021  0.8333333333333357
  0.5000000000000000  0.1666669990000003  0.8333333333333357
  0.6666666870000029  0.0000000000000000  0.8333333333333357
  0.3333329860000021  0.8333333129999971  0.8333333333333357
  0.5000000000000000  0.6666669849999991  0.8333333333333357
  0.6666666870000029  0.5000000000000000  0.8333333333333357
  0.8333333129999971  0.3333329860000021  0.8333333333333357
  0.8333333129999971  0.8333333129999971  0.8333333333333357
 
  0.00000000E+00  0.00000000E+00  0.00000000E+00
  0.00000000E+00  0.00000000E+00  0.00000000E+00
  0.00000000E+00  0.00000000E+00  0.00000000E+00
  0.00000000E+00  0.00000000E+00  0.00000000E+00
  0.00000000E+00  0.00000000E+00  0.00000000E+00
  0.00000000E+00  0.00000000E+00  0.00000000E+00
  0.00000000E+00  0.00000000E+00  0.00000000E+00
  0.00000000E+00  0.00000000E+00  0.00000000E+00
  0.00000000E+00  0.00000000E+00  0.00000000E+00
  0.00000000E+00  0.00000000E+00  0.00000000E+00
  0.00000000E+00  0.00000000E+00  0.00000000E+00
  0.00000000E+00  0.00000000E+00  0.00000000E+00
  0.00000000E+00  0.00000000E+00  0.00000000E+00
  0.00000000E+00  0.00000000E+00  0.00000000E+00
  0.00000000E+00  0.00000000E+00  0.00000000E+00
  0.00000000E+00  0.00000000E+00  0.00000000E+00
  0.00000000E+00  0.00000000E+00  0.00000000E+00
  0.00000000E+00  0.00000000E+00  0.00000000E+00
  0.00000000E+00  0.00000000E+00  0.00000000E+00
  0.00000000E+00  0.00000000E+00  0.00000000E+00
  0.00000000E+00  0.00000000E+00  0.00000000E+00
  0.00000000E+00  0.00000000E+00  0.00000000E+00
  0.00000000E+00  0.00000000E+00  0.00000000E+00
  0.00000000E+00  0.00000000E+00  0.00000000E+00
  0.00000000E+00  0.00000000E+00  0.00000000E+00
  0.00000000E+00  0.00000000E+00  0.00000000E+00
  0.00000000E+00  0.00000000E+00  0.00000000E+00
  0.00000000E+00  0.00000000E+00  0.00000000E+00
  0.00000000E+00  0.00000000E+00  0.00000000E+00
  0.00000000E+00  0.00000000E+00  0.00000000E+00
  0.00000000E+00  0.00000000E+00  0.00000000E+00
  0.00000000E+00  0.00000000E+00  0.00000000E+00
  0.00000000E+00  0.00000000E+00  0.00000000E+00
  0.00000000E+00  0.00000000E+00  0.00000000E+00
  0.00000000E+00  0.00000000E+00  0.00000000E+00
  0.00000000E+00  0.00000000E+00  0.00000000E+00
  0.00000000E+00  0.00000000E+00  0.00000000E+00
  0.00000000E+00  0.00000000E+00  0.00000000E+00
  0.00000000E+00  0.00000000E+00  0.00000000E+00
  0.00000000E+00  0.00000000E+00  0.00000000E+00
  0.00000000E+00  0.00000000E+00  0.00000000E+00
  0.00000000E+00  0.00000000E+00  0.00000000E+00
  0.00000000E+00  0.00000000E+00  0.00000000E+00
  0.00000000E+00  0.00000000E+00  0.00000000E+00
  0.00000000E+00  0.00000000E+00  0.00000000E+00
  0.00000000E+00  0.00000000E+00  0.00000000E+00
  0.00000000E+00  0.00000000E+00  0.00000000E+00
  0.00000000E+00  0.00000000E+00  0.00000000E+00
  0.00000000E+00  0.00000000E+00  0.00000000E+00
  0.00000000E+00  0.00000000E+00  0.00000000E+00
  0.00000000E+00  0.00000000E+00  0.00000000E+00
  0.00000000E+00  0.00000000E+00  0.00000000E+00
  0.00000000E+00  0.00000000E+00  0.00000000E+00
  0.00000000E+00  0.00000000E+00  0.00000000E+00
  0.00000000E+00  0.00000000E+00  0.00000000E+00
  0.00000000E+00  0.00000000E+00  0.00000000E+00
  0.00000000E+00  0.00000000E+00  0.00000000E+00
  0.00000000E+00  0.00000000E+00  0.00000000E+00
  0.00000000E+00  0.00000000E+00  0.00000000E+00
  0.00000000E+00  0.00000000E+00  0.00000000E+00
  0.00000000E+00  0.00000000E+00  0.00000000E+00
  0.00000000E+00  0.00000000E+00  0.00000000E+00
  0.00000000E+00  0.00000000E+00  0.00000000E+00
  0.00000000E+00  0.00000000E+00  0.00000000E+00
  0.00000000E+00  0.00000000E+00  0.00000000E+00
  0.00000000E+00  0.00000000E+00  0.00000000E+00
  0.00000000E+00  0.00000000E+00  0.00000000E+00
  0.00000000E+00  0.00000000E+00  0.00000000E+00
  0.00000000E+00  0.00000000E+00  0.00000000E+00
  0.00000000E+00  0.00000000E+00  0.00000000E+00
  0.00000000E+00  0.00000000E+00  0.00000000E+00
  0.00000000E+00  0.00000000E+00  0.00000000E+00